\ This file has been generated by DOcplex
\ ENCODING=ISO-8859-1
\Problem name: TRP_BigM

Minimize
 obj: thr_0_11_0 + thr_0_11_180 + thr_0_11_360 + thr_1_7_0 + thr_1_7_180
      + thr_1_7_360 + thr_2_15_0 + thr_2_15_180 + thr_2_15_360 + thr_3_13_0
      + thr_3_13_180 + thr_3_13_360 + thr_4_45_0 + thr_4_45_180 + thr_4_45_360
      + thr_5_41_0 + thr_5_41_180 + thr_5_41_360 + thr_6_15_0 + thr_6_15_180
      + thr_6_15_360 + thr_7_47_0 + thr_7_47_180 + thr_7_47_360
Subject To
 c1: - t_0_0 + t_0_1 >= 0
 c2: - t_0_1 + t_0_2 >= 0
 c3: - t_0_2 + t_0_3 >= 10
 c4: - t_0_3 + t_0_4 >= 930
 c5: - t_0_4 + t_0_5 >= 30
 c6: - t_0_5 + t_0_6 >= 290
 c7: - t_0_6 + t_0_7 >= 10
 c8: - t_0_7 + t_0_8 >= 270
 c9: - t_0_8 + t_0_9 >= 30
 c10: - t_0_9 + t_0_10 >= 350
 c11: - t_0_10 + t_0_11 >= 0
 c12: - t_0_11 + t_0_12 >= 250
 c13: - t_1_0 + t_1_1 >= 20
 c14: - t_1_1 + t_1_2 >= 220
 c15: - t_1_2 + t_1_3 >= 20
 c16: - t_1_3 + t_1_4 >= 390
 c17: - t_1_4 + t_1_5 >= 30
 c18: - t_1_5 + t_1_6 >= 120
 c19: - t_1_6 + t_1_7 >= 0
 c20: - t_1_7 + t_1_8 >= 120
 c21: - t_2_0 + t_2_1 >= 0
 c22: - t_2_1 + t_2_2 >= 0
 c23: - t_2_2 + t_2_3 >= 30
 c24: - t_2_3 + t_2_4 >= 300
 c25: - t_2_4 + t_2_5 >= 180
 c26: - t_2_5 + t_2_6 >= 270
 c27: - t_2_6 + t_2_7 >= 30
 c28: - t_2_7 + t_2_8 >= 270
 c29: - t_2_8 + t_2_9 >= 30
 c30: - t_2_9 + t_2_10 >= 220
 c31: - t_2_10 + t_2_11 >= 20
 c32: - t_2_11 + t_2_12 >= 390
 c33: - t_2_12 + t_2_13 >= 30
 c34: - t_2_13 + t_2_14 >= 120
 c35: - t_2_14 + t_2_15 >= 0
 c36: - t_2_15 + t_2_16 >= 120
 c37: - t_3_0 + t_3_1 >= 0
 c38: - t_3_1 + t_3_2 >= 178
 c39: - t_3_2 + t_3_3 >= 120
 c40: - t_3_3 + t_3_4 >= 90
 c41: - t_3_4 + t_3_5 >= 30
 c42: - t_3_5 + t_3_6 >= 150
 c43: - t_3_6 + t_3_7 >= 30
 c44: - t_3_7 + t_3_8 >= 100
 c45: - t_3_8 + t_3_9 >= 0
 c46: - t_3_9 + t_3_10 >= 50
 c47: - t_3_10 + t_3_11 >= 30
 c48: - t_3_11 + t_3_12 >= 180
 c49: - t_3_12 + t_3_13 >= 0
 c50: - t_3_13 + t_3_14 >= 180
 c51: - t_4_0 + t_4_1 >= 0
 c52: - t_4_1 + t_4_2 >= 0
 c53: - t_4_2 + t_4_3 >= 30
 c54: - t_4_3 + t_4_4 >= 350
 c55: - t_4_4 + t_4_5 >= 10
 c56: - t_4_5 + t_4_6 >= 270
 c57: - t_4_6 + t_4_7 >= 30
 c58: - t_4_7 + t_4_8 >= 270
 c59: - t_4_8 + t_4_9 >= 30
 c60: - t_4_9 + t_4_10 >= 240
 c61: - t_4_10 + t_4_11 >= 0
 c62: - t_4_11 + t_4_12 >= 90
 c63: - t_4_12 + t_4_13 >= 30
 c64: - t_4_13 + t_4_14 >= 120
 c65: - t_4_14 + t_4_15 >= 0
 c66: - t_4_15 + t_4_16 >= 180
 c67: - t_4_16 + t_4_17 >= 120
 c68: - t_4_17 + t_4_18 >= 180
 c69: - t_4_18 + t_4_19 >= 0
 c70: - t_4_19 + t_4_20 >= 240
 c71: - t_4_20 + t_4_21 >= 0
 c72: - t_4_21 + t_4_22 >= 71
 c73: - t_4_22 + t_4_23 >= 0
 c74: - t_4_23 + t_4_24 >= 109
 c75: - t_4_24 + t_4_25 >= 0
 c76: - t_4_25 + t_4_26 >= 210
 c77: - t_4_26 + t_4_27 >= 30
 c78: - t_4_27 + t_4_28 >= 300
 c79: - t_4_28 + t_4_29 >= 0
 c80: - t_4_29 + t_4_30 >= 88
 c81: - t_4_30 + t_4_31 >= 0
 c82: - t_4_31 + t_4_32 >= 92
 c83: - t_4_32 + t_4_33 >= 0
 c84: - t_4_33 + t_4_34 >= 300
 c85: - t_4_34 + t_4_35 >= 60
 c86: - t_4_35 + t_4_36 >= 90
 c87: - t_4_36 + t_4_37 >= 30
 c88: - t_4_37 + t_4_38 >= 150
 c89: - t_4_38 + t_4_39 >= 30
 c90: - t_4_39 + t_4_40 >= 99
 c91: - t_4_40 + t_4_41 >= 0
 c92: - t_4_41 + t_4_42 >= 50
 c93: - t_4_42 + t_4_43 >= 0
 c94: - t_4_43 + t_4_44 >= 165
 c95: - t_4_44 + t_4_45 >= 0
 c96: - t_4_45 + t_4_46 >= 166
 c97: - t_5_0 + t_5_1 >= 0
 c98: - t_5_1 + t_5_2 >= 240
 c99: - t_5_2 + t_5_3 >= 0
 c100: - t_5_3 + t_5_4 >= 180
 c101: - t_5_4 + t_5_5 >= 0
 c102: - t_5_5 + t_5_6 >= 102
 c103: - t_5_6 + t_5_7 >= 0
 c104: - t_5_7 + t_5_8 >= 78
 c105: - t_5_8 + t_5_9 >= 0
 c106: - t_5_9 + t_5_10 >= 240
 c107: - t_5_10 + t_5_11 >= 0
 c108: - t_5_11 + t_5_12 >= 180
 c109: - t_5_12 + t_5_13 >= 0
 c110: - t_5_13 + t_5_14 >= 180
 c111: - t_5_14 + t_5_15 >= 0
 c112: - t_5_15 + t_5_16 >= 30
 c113: - t_5_16 + t_5_17 >= 30
 c114: - t_5_17 + t_5_18 >= 180
 c115: - t_5_18 + t_5_19 >= 0
 c116: - t_5_19 + t_5_20 >= 210
 c117: - t_5_20 + t_5_21 >= 30
 c118: - t_5_21 + t_5_22 >= 270
 c119: - t_5_22 + t_5_23 >= 30
 c120: - t_5_23 + t_5_24 >= 230
 c121: - t_5_24 + t_5_25 >= 10
 c122: - t_5_25 + t_5_26 >= 390
 c123: - t_5_26 + t_5_27 >= 30
 c124: - t_5_27 + t_5_28 >= 120
 c125: - t_5_28 + t_5_29 >= 0
 c126: - t_5_29 + t_5_30 >= 120
 c127: - t_5_30 + t_5_31 >= 120
 c128: - t_5_31 + t_5_32 >= 470
 c129: - t_5_32 + t_5_33 >= 10
 c130: - t_5_33 + t_5_34 >= 960
 c131: - t_5_34 + t_5_35 >= 240
 c132: - t_5_35 + t_5_36 >= 290
 c133: - t_5_36 + t_5_37 >= 10
 c134: - t_5_37 + t_5_38 >= 330
 c135: - t_5_38 + t_5_39 >= 30
 c136: - t_5_39 + t_5_40 >= 350
 c137: - t_5_40 + t_5_41 >= 0
 c138: - t_5_41 + t_5_42 >= 250
 c139: - t_6_0 + t_6_1 >= 67
 c140: - t_6_1 + t_6_2 >= 210
 c141: - t_6_2 + t_6_3 >= 30
 c142: - t_6_3 + t_6_4 >= 300
 c143: - t_6_4 + t_6_5 >= 0
 c144: - t_6_5 + t_6_6 >= 30
 c145: - t_6_6 + t_6_7 >= 30
 c146: - t_6_7 + t_6_8 >= 150
 c147: - t_6_8 + t_6_9 >= 30
 c148: - t_6_9 + t_6_10 >= 330
 c149: - t_6_10 + t_6_11 >= 30
 c150: - t_6_11 + t_6_12 >= 240
 c151: - t_6_12 + t_6_13 >= 240
 c152: - t_6_13 + t_6_14 >= 100
 c153: - t_6_14 + t_6_15 >= 20
 c154: - t_6_15 + t_6_16 >= 180
 c155: - t_7_0 + t_7_1 >= 0
 c156: - t_7_1 + t_7_2 >= 135
 c157: - t_7_2 + t_7_3 >= 0
 c158: - t_7_3 + t_7_4 >= 135
 c159: - t_7_4 + t_7_5 >= 30
 c160: - t_7_5 + t_7_6 >= 80
 c161: - t_7_6 + t_7_7 >= 0
 c162: - t_7_7 + t_7_8 >= 160
 c163: - t_7_8 + t_7_9 >= 180
 c164: - t_7_9 + t_7_10 >= 90
 c165: - t_7_10 + t_7_11 >= 30
 c166: - t_7_11 + t_7_12 >= 150
 c167: - t_7_12 + t_7_13 >= 30
 c168: - t_7_13 + t_7_14 >= 300
 c169: - t_7_14 + t_7_15 >= 0
 c170: - t_7_15 + t_7_16 >= 30
 c171: - t_7_16 + t_7_17 >= 30
 c172: - t_7_17 + t_7_18 >= 240
 c173: - t_7_18 + t_7_19 >= 180
 c174: - t_7_19 + t_7_20 >= 330
 c175: - t_7_20 + t_7_21 >= 30
 c176: - t_7_21 + t_7_22 >= 210
 c177: - t_7_22 + t_7_23 >= 30
 c178: - t_7_23 + t_7_24 >= 100
 c179: - t_7_24 + t_7_25 >= 20
 c180: - t_7_25 + t_7_26 >= 150
 c181: - t_7_26 + t_7_27 >= 30
 c182: - t_7_27 + t_7_28 >= 240
 c183: - t_7_28 + t_7_29 >= 0
 c184: - t_7_29 + t_7_30 >= 180
 c185: - t_7_30 + t_7_31 >= 0
 c186: - t_7_31 + t_7_32 >= 180
 c187: - t_7_32 + t_7_33 >= 0
 c188: - t_7_33 + t_7_34 >= 30
 c189: - t_7_34 + t_7_35 >= 30
 c190: - t_7_35 + t_7_36 >= 240
 c191: - t_7_36 + t_7_37 >= 0
 c192: - t_7_37 + t_7_38 >= 240
 c193: - t_7_38 + t_7_39 >= 180
 c194: - t_7_39 + t_7_40 >= 330
 c195: - t_7_40 + t_7_41 >= 30
 c196: - t_7_41 + t_7_42 >= 220
 c197: - t_7_42 + t_7_43 >= 20
 c198: - t_7_43 + t_7_44 >= 390
 c199: - t_7_44 + t_7_45 >= 30
 c200: - t_7_45 + t_7_46 >= 120
 c201: - t_7_46 + t_7_47 >= 0
 c202: - t_7_47 + t_7_48 >= 120
 c203: t_0_2 - t_5_31 + 43200 y_0_1_5_31 <= 43200
 c204: t_5_32 - t_0_1 - 43200 y_0_1_5_31 <= 0
 c205: t_0_4 - t_5_33 + 43200 y_0_3_5_33 <= 43200
 c206: t_5_34 - t_0_3 - 43200 y_0_3_5_33 <= 0
 c207: t_0_6 - t_5_35 + 43200 y_0_5_5_35 <= 43200
 c208: t_5_36 - t_0_5 - 43200 y_0_5_5_35 <= 0
 c209: t_0_8 - t_5_37 + 43200 y_0_7_5_37 <= 43200
 c210: t_5_38 - t_0_7 - 43200 y_0_7_5_37 <= 0
 c211: t_0_10 - t_5_39 + 43200 y_0_9_5_39 <= 43200
 c212: t_5_40 - t_0_9 - 43200 y_0_9_5_39 <= 0
 c213: t_0_12 - t_5_41 + 43200 y_0_11_5_41 <= 43200
 c214: t_5_42 - t_0_11 - 43200 y_0_11_5_41 <= 0
 c215: t_1_2 - t_2_9 + 43200 y_1_1_2_9 <= 43200
 c216: t_2_10 - t_1_1 - 43200 y_1_1_2_9 <= 0
 c217: t_1_4 - t_2_11 + 43200 y_1_3_2_11 <= 43200
 c218: t_2_12 - t_1_3 - 43200 y_1_3_2_11 <= 0
 c219: t_1_6 - t_2_13 + 43200 y_1_5_2_13 <= 43200
 c220: t_2_14 - t_1_5 - 43200 y_1_5_2_13 <= 0
 c221: t_1_8 - t_2_15 + 43200 y_1_7_2_15 <= 43200
 c222: t_2_16 - t_1_7 - 43200 y_1_7_2_15 <= 0
 c223: t_1_2 - t_4_5 + 43200 y_1_1_4_5 <= 43200
 c224: t_4_6 - t_1_1 - 43200 y_1_1_4_5 <= 0
 c225: t_1_4 - t_4_3 + 43200 y_1_3_4_3 <= 43200
 c226: t_4_4 - t_1_3 - 43200 y_1_3_4_3 <= 0
 c227: t_1_6 - t_4_1 + 43200 y_1_5_4_1 <= 43200
 c228: t_4_2 - t_1_5 - 43200 y_1_5_4_1 <= 0
 c229: t_1_2 - t_5_23 + 43200 y_1_1_5_23 <= 43200
 c230: t_5_24 - t_1_1 - 43200 y_1_1_5_23 <= 0
 c231: t_1_4 - t_5_25 + 43200 y_1_3_5_25 <= 43200
 c232: t_5_26 - t_1_3 - 43200 y_1_3_5_25 <= 0
 c233: t_1_6 - t_5_27 + 43200 y_1_5_5_27 <= 43200
 c234: t_5_28 - t_1_5 - 43200 y_1_5_5_27 <= 0
 c235: t_1_8 - t_5_29 + 43200 y_1_7_5_29 <= 43200
 c236: t_5_30 - t_1_7 - 43200 y_1_7_5_29 <= 0
 c237: t_1_2 - t_7_41 + 43200 y_1_1_7_41 <= 43200
 c238: t_7_42 - t_1_1 - 43200 y_1_1_7_41 <= 0
 c239: t_1_4 - t_7_43 + 43200 y_1_3_7_43 <= 43200
 c240: t_7_44 - t_1_3 - 43200 y_1_3_7_43 <= 0
 c241: t_1_6 - t_7_45 + 43200 y_1_5_7_45 <= 43200
 c242: t_7_46 - t_1_5 - 43200 y_1_5_7_45 <= 0
 c243: t_1_8 - t_7_47 + 43200 y_1_7_7_47 <= 43200
 c244: t_7_48 - t_1_7 - 43200 y_1_7_7_47 <= 0
 c245: t_2_2 - t_4_13 + 43200 y_2_1_4_13 <= 43200
 c246: t_4_14 - t_2_1 - 43200 y_2_1_4_13 <= 0
 c247: t_2_4 - t_4_11 + 43200 y_2_3_4_11 <= 43200
 c248: t_4_12 - t_2_3 - 43200 y_2_3_4_11 <= 0
 c249: t_2_6 - t_4_9 + 43200 y_2_5_4_9 <= 43200
 c250: t_4_10 - t_2_5 - 43200 y_2_5_4_9 <= 0
 c251: t_2_8 - t_4_7 + 43200 y_2_7_4_7 <= 43200
 c252: t_4_8 - t_2_7 - 43200 y_2_7_4_7 <= 0
 c253: t_2_10 - t_4_5 + 43200 y_2_9_4_5 <= 43200
 c254: t_4_6 - t_2_9 - 43200 y_2_9_4_5 <= 0
 c255: t_2_12 - t_4_3 + 43200 y_2_11_4_3 <= 43200
 c256: t_4_4 - t_2_11 - 43200 y_2_11_4_3 <= 0
 c257: t_2_14 - t_4_1 + 43200 y_2_13_4_1 <= 43200
 c258: t_4_2 - t_2_13 - 43200 y_2_13_4_1 <= 0
 c259: t_2_2 - t_5_15 + 43200 y_2_1_5_15 <= 43200
 c260: t_5_16 - t_2_1 - 43200 y_2_1_5_15 <= 0
 c261: t_2_4 - t_5_17 + 43200 y_2_3_5_17 <= 43200
 c262: t_5_18 - t_2_3 - 43200 y_2_3_5_17 <= 0
 c263: t_2_6 - t_5_19 + 43200 y_2_5_5_19 <= 43200
 c264: t_5_20 - t_2_5 - 43200 y_2_5_5_19 <= 0
 c265: t_2_8 - t_5_21 + 43200 y_2_7_5_21 <= 43200
 c266: t_5_22 - t_2_7 - 43200 y_2_7_5_21 <= 0
 c267: t_2_10 - t_5_23 + 43200 y_2_9_5_23 <= 43200
 c268: t_5_24 - t_2_9 - 43200 y_2_9_5_23 <= 0
 c269: t_2_12 - t_5_25 + 43200 y_2_11_5_25 <= 43200
 c270: t_5_26 - t_2_11 - 43200 y_2_11_5_25 <= 0
 c271: t_2_14 - t_5_27 + 43200 y_2_13_5_27 <= 43200
 c272: t_5_28 - t_2_13 - 43200 y_2_13_5_27 <= 0
 c273: t_2_16 - t_5_29 + 43200 y_2_15_5_29 <= 43200
 c274: t_5_30 - t_2_15 - 43200 y_2_15_5_29 <= 0
 c275: t_2_2 - t_7_33 + 43200 y_2_1_7_33 <= 43200
 c276: t_7_34 - t_2_1 - 43200 y_2_1_7_33 <= 0
 c277: t_2_4 - t_7_35 + 43200 y_2_3_7_35 <= 43200
 c278: t_7_36 - t_2_3 - 43200 y_2_3_7_35 <= 0
 c279: t_2_6 - t_7_37 + 43200 y_2_5_7_37 <= 43200
 c280: t_7_38 - t_2_5 - 43200 y_2_5_7_37 <= 0
 c281: t_2_8 - t_7_39 + 43200 y_2_7_7_39 <= 43200
 c282: t_7_40 - t_2_7 - 43200 y_2_7_7_39 <= 0
 c283: t_2_10 - t_7_41 + 43200 y_2_9_7_41 <= 43200
 c284: t_7_42 - t_2_9 - 43200 y_2_9_7_41 <= 0
 c285: t_2_12 - t_7_43 + 43200 y_2_11_7_43 <= 43200
 c286: t_7_44 - t_2_11 - 43200 y_2_11_7_43 <= 0
 c287: t_2_14 - t_7_45 + 43200 y_2_13_7_45 <= 43200
 c288: t_7_46 - t_2_13 - 43200 y_2_13_7_45 <= 0
 c289: t_2_16 - t_7_47 + 43200 y_2_15_7_47 <= 43200
 c290: t_7_48 - t_2_15 - 43200 y_2_15_7_47 <= 0
 c291: t_3_2 - t_4_33 + 43200 y_3_1_4_33 <= 43200
 c292: t_4_34 - t_3_1 - 43200 y_3_1_4_33 <= 0
 c293: t_3_4 - t_4_35 + 43200 y_3_3_4_35 <= 43200
 c294: t_4_36 - t_3_3 - 43200 y_3_3_4_35 <= 0
 c295: t_3_6 - t_4_37 + 43200 y_3_5_4_37 <= 43200
 c296: t_4_38 - t_3_5 - 43200 y_3_5_4_37 <= 0
 c297: t_3_8 - t_4_39 + 43200 y_3_7_4_39 <= 43200
 c298: t_4_40 - t_3_7 - 43200 y_3_7_4_39 <= 0
 c299: t_3_10 - t_4_41 + 43200 y_3_9_4_41 <= 43200
 c300: t_4_42 - t_3_9 - 43200 y_3_9_4_41 <= 0
 c301: t_3_12 - t_4_43 + 43200 y_3_11_4_43 <= 43200
 c302: t_4_44 - t_3_11 - 43200 y_3_11_4_43 <= 0
 c303: t_3_14 - t_4_45 + 43200 y_3_13_4_45 <= 43200
 c304: t_4_46 - t_3_13 - 43200 y_3_13_4_45 <= 0
 c305: t_3_2 - t_6_3 + 43200 y_3_1_6_3 <= 43200
 c306: t_6_4 - t_3_1 - 43200 y_3_1_6_3 <= 0
 c307: t_3_4 - t_6_1 + 43200 y_3_3_6_1 <= 43200
 c308: t_6_2 - t_3_3 - 43200 y_3_3_6_1 <= 0
 c309: t_3_2 - t_7_13 + 43200 y_3_1_7_13 <= 43200
 c310: t_7_14 - t_3_1 - 43200 y_3_1_7_13 <= 0
 c311: t_3_4 - t_7_11 + 43200 y_3_3_7_11 <= 43200
 c312: t_7_12 - t_3_3 - 43200 y_3_3_7_11 <= 0
 c313: t_3_6 - t_7_9 + 43200 y_3_5_7_9 <= 43200
 c314: t_7_10 - t_3_5 - 43200 y_3_5_7_9 <= 0
 c315: t_3_14 - t_7_1 + 43200 y_3_13_7_1 <= 43200
 c316: t_7_2 - t_3_13 - 43200 y_3_13_7_1 <= 0
 c317: t_4_2 - t_5_27 + 43200 y_4_1_5_27 <= 43200
 c318: t_5_28 - t_4_1 - 43200 y_4_1_5_27 <= 0
 c319: t_4_4 - t_5_25 + 43200 y_4_3_5_25 <= 43200
 c320: t_5_26 - t_4_3 - 43200 y_4_3_5_25 <= 0
 c321: t_4_6 - t_5_23 + 43200 y_4_5_5_23 <= 43200
 c322: t_5_24 - t_4_5 - 43200 y_4_5_5_23 <= 0
 c323: t_4_8 - t_5_21 + 43200 y_4_7_5_21 <= 43200
 c324: t_5_22 - t_4_7 - 43200 y_4_7_5_21 <= 0
 c325: t_4_10 - t_5_19 + 43200 y_4_9_5_19 <= 43200
 c326: t_5_20 - t_4_9 - 43200 y_4_9_5_19 <= 0
 c327: t_4_12 - t_5_17 + 43200 y_4_11_5_17 <= 43200
 c328: t_5_18 - t_4_11 - 43200 y_4_11_5_17 <= 0
 c329: t_4_14 - t_5_15 + 43200 y_4_13_5_15 <= 43200
 c330: t_5_16 - t_4_13 - 43200 y_4_13_5_15 <= 0
 c331: t_4_16 - t_5_13 + 43200 y_4_15_5_13 <= 43200
 c332: t_5_14 - t_4_15 - 43200 y_4_15_5_13 <= 0
 c333: t_4_18 - t_5_11 + 43200 y_4_17_5_11 <= 43200
 c334: t_5_12 - t_4_17 - 43200 y_4_17_5_11 <= 0
 c335: t_4_20 - t_5_9 + 43200 y_4_19_5_9 <= 43200
 c336: t_5_10 - t_4_19 - 43200 y_4_19_5_9 <= 0
 c337: t_4_22 - t_5_7 + 43200 y_4_21_5_7 <= 43200
 c338: t_5_8 - t_4_21 - 43200 y_4_21_5_7 <= 0
 c339: t_4_24 - t_5_5 + 43200 y_4_23_5_5 <= 43200
 c340: t_5_6 - t_4_23 - 43200 y_4_23_5_5 <= 0
 c341: t_4_26 - t_5_3 + 43200 y_4_25_5_3 <= 43200
 c342: t_5_4 - t_4_25 - 43200 y_4_25_5_3 <= 0
 c343: t_4_28 - t_5_1 + 43200 y_4_27_5_1 <= 43200
 c344: t_5_2 - t_4_27 - 43200 y_4_27_5_1 <= 0
 c345: t_4_22 - t_6_15 + 43200 y_4_21_6_15 <= 43200
 c346: t_6_16 - t_4_21 - 43200 y_4_21_6_15 <= 0
 c347: t_4_24 - t_6_13 + 43200 y_4_23_6_13 <= 43200
 c348: t_6_14 - t_4_23 - 43200 y_4_23_6_13 <= 0
 c349: t_4_26 - t_6_11 + 43200 y_4_25_6_11 <= 43200
 c350: t_6_12 - t_4_25 - 43200 y_4_25_6_11 <= 0
 c351: t_4_28 - t_6_9 + 43200 y_4_27_6_9 <= 43200
 c352: t_6_10 - t_4_27 - 43200 y_4_27_6_9 <= 0
 c353: t_4_30 - t_6_7 + 43200 y_4_29_6_7 <= 43200
 c354: t_6_8 - t_4_29 - 43200 y_4_29_6_7 <= 0
 c355: t_4_32 - t_6_5 + 43200 y_4_31_6_5 <= 43200
 c356: t_6_6 - t_4_31 - 43200 y_4_31_6_5 <= 0
 c357: t_4_34 - t_6_3 + 43200 y_4_33_6_3 <= 43200
 c358: t_6_4 - t_4_33 - 43200 y_4_33_6_3 <= 0
 c359: t_4_36 - t_6_1 + 43200 y_4_35_6_1 <= 43200
 c360: t_6_2 - t_4_35 - 43200 y_4_35_6_1 <= 0
 c361: t_4_2 - t_7_45 + 43200 y_4_1_7_45 <= 43200
 c362: t_7_46 - t_4_1 - 43200 y_4_1_7_45 <= 0
 c363: t_4_4 - t_7_43 + 43200 y_4_3_7_43 <= 43200
 c364: t_7_44 - t_4_3 - 43200 y_4_3_7_43 <= 0
 c365: t_4_6 - t_7_41 + 43200 y_4_5_7_41 <= 43200
 c366: t_7_42 - t_4_5 - 43200 y_4_5_7_41 <= 0
 c367: t_4_8 - t_7_39 + 43200 y_4_7_7_39 <= 43200
 c368: t_7_40 - t_4_7 - 43200 y_4_7_7_39 <= 0
 c369: t_4_10 - t_7_37 + 43200 y_4_9_7_37 <= 43200
 c370: t_7_38 - t_4_9 - 43200 y_4_9_7_37 <= 0
 c371: t_4_12 - t_7_35 + 43200 y_4_11_7_35 <= 43200
 c372: t_7_36 - t_4_11 - 43200 y_4_11_7_35 <= 0
 c373: t_4_14 - t_7_33 + 43200 y_4_13_7_33 <= 43200
 c374: t_7_34 - t_4_13 - 43200 y_4_13_7_33 <= 0
 c375: t_4_16 - t_7_31 + 43200 y_4_15_7_31 <= 43200
 c376: t_7_32 - t_4_15 - 43200 y_4_15_7_31 <= 0
 c377: t_4_18 - t_7_29 + 43200 y_4_17_7_29 <= 43200
 c378: t_7_30 - t_4_17 - 43200 y_4_17_7_29 <= 0
 c379: t_4_20 - t_7_27 + 43200 y_4_19_7_27 <= 43200
 c380: t_7_28 - t_4_19 - 43200 y_4_19_7_27 <= 0
 c381: t_4_22 - t_7_25 + 43200 y_4_21_7_25 <= 43200
 c382: t_7_26 - t_4_21 - 43200 y_4_21_7_25 <= 0
 c383: t_4_24 - t_7_23 + 43200 y_4_23_7_23 <= 43200
 c384: t_7_24 - t_4_23 - 43200 y_4_23_7_23 <= 0
 c385: t_4_26 - t_7_21 + 43200 y_4_25_7_21 <= 43200
 c386: t_7_22 - t_4_25 - 43200 y_4_25_7_21 <= 0
 c387: t_4_28 - t_7_19 + 43200 y_4_27_7_19 <= 43200
 c388: t_7_20 - t_4_27 - 43200 y_4_27_7_19 <= 0
 c389: t_4_30 - t_7_17 + 43200 y_4_29_7_17 <= 43200
 c390: t_7_18 - t_4_29 - 43200 y_4_29_7_17 <= 0
 c391: t_4_32 - t_7_15 + 43200 y_4_31_7_15 <= 43200
 c392: t_7_16 - t_4_31 - 43200 y_4_31_7_15 <= 0
 c393: t_4_34 - t_7_13 + 43200 y_4_33_7_13 <= 43200
 c394: t_7_14 - t_4_33 - 43200 y_4_33_7_13 <= 0
 c395: t_4_36 - t_7_11 + 43200 y_4_35_7_11 <= 43200
 c396: t_7_12 - t_4_35 - 43200 y_4_35_7_11 <= 0
 c397: t_4_38 - t_7_9 + 43200 y_4_37_7_9 <= 43200
 c398: t_7_10 - t_4_37 - 43200 y_4_37_7_9 <= 0
 c399: t_4_46 - t_7_1 + 43200 y_4_45_7_1 <= 43200
 c400: t_7_2 - t_4_45 - 43200 y_4_45_7_1 <= 0
 c401: t_5_2 - t_6_9 + 43200 y_5_1_6_9 <= 43200
 c402: t_6_10 - t_5_1 - 43200 y_5_1_6_9 <= 0
 c403: t_5_4 - t_6_11 + 43200 y_5_3_6_11 <= 43200
 c404: t_6_12 - t_5_3 - 43200 y_5_3_6_11 <= 0
 c405: t_5_6 - t_6_13 + 43200 y_5_5_6_13 <= 43200
 c406: t_6_14 - t_5_5 - 43200 y_5_5_6_13 <= 0
 c407: t_5_8 - t_6_15 + 43200 y_5_7_6_15 <= 43200
 c408: t_6_16 - t_5_7 - 43200 y_5_7_6_15 <= 0
 c409: t_5_2 - t_7_19 + 43200 y_5_1_7_19 <= 43200
 c410: t_7_20 - t_5_1 - 43200 y_5_1_7_19 <= 0
 c411: t_5_4 - t_7_21 + 43200 y_5_3_7_21 <= 43200
 c412: t_7_22 - t_5_3 - 43200 y_5_3_7_21 <= 0
 c413: t_5_6 - t_7_23 + 43200 y_5_5_7_23 <= 43200
 c414: t_7_24 - t_5_5 - 43200 y_5_5_7_23 <= 0
 c415: t_5_8 - t_7_25 + 43200 y_5_7_7_25 <= 43200
 c416: t_7_26 - t_5_7 - 43200 y_5_7_7_25 <= 0
 c417: t_5_10 - t_7_27 + 43200 y_5_9_7_27 <= 43200
 c418: t_7_28 - t_5_9 - 43200 y_5_9_7_27 <= 0
 c419: t_5_12 - t_7_29 + 43200 y_5_11_7_29 <= 43200
 c420: t_7_30 - t_5_11 - 43200 y_5_11_7_29 <= 0
 c421: t_5_14 - t_7_31 + 43200 y_5_13_7_31 <= 43200
 c422: t_7_32 - t_5_13 - 43200 y_5_13_7_31 <= 0
 c423: t_5_16 - t_7_33 + 43200 y_5_15_7_33 <= 43200
 c424: t_7_34 - t_5_15 - 43200 y_5_15_7_33 <= 0
 c425: t_5_18 - t_7_35 + 43200 y_5_17_7_35 <= 43200
 c426: t_7_36 - t_5_17 - 43200 y_5_17_7_35 <= 0
 c427: t_5_20 - t_7_37 + 43200 y_5_19_7_37 <= 43200
 c428: t_7_38 - t_5_19 - 43200 y_5_19_7_37 <= 0
 c429: t_5_22 - t_7_39 + 43200 y_5_21_7_39 <= 43200
 c430: t_7_40 - t_5_21 - 43200 y_5_21_7_39 <= 0
 c431: t_5_24 - t_7_41 + 43200 y_5_23_7_41 <= 43200
 c432: t_7_42 - t_5_23 - 43200 y_5_23_7_41 <= 0
 c433: t_5_26 - t_7_43 + 43200 y_5_25_7_43 <= 43200
 c434: t_7_44 - t_5_25 - 43200 y_5_25_7_43 <= 0
 c435: t_5_28 - t_7_45 + 43200 y_5_27_7_45 <= 43200
 c436: t_7_46 - t_5_27 - 43200 y_5_27_7_45 <= 0
 c437: t_5_30 - t_7_47 + 43200 y_5_29_7_47 <= 43200
 c438: t_7_48 - t_5_29 - 43200 y_5_29_7_47 <= 0
 c439: t_6_2 - t_7_11 + 43200 y_6_1_7_11 <= 43200
 c440: t_7_12 - t_6_1 - 43200 y_6_1_7_11 <= 0
 c441: t_6_4 - t_7_13 + 43200 y_6_3_7_13 <= 43200
 c442: t_7_14 - t_6_3 - 43200 y_6_3_7_13 <= 0
 c443: t_6_6 - t_7_15 + 43200 y_6_5_7_15 <= 43200
 c444: t_7_16 - t_6_5 - 43200 y_6_5_7_15 <= 0
 c445: t_6_8 - t_7_17 + 43200 y_6_7_7_17 <= 43200
 c446: t_7_18 - t_6_7 - 43200 y_6_7_7_17 <= 0
 c447: t_6_10 - t_7_19 + 43200 y_6_9_7_19 <= 43200
 c448: t_7_20 - t_6_9 - 43200 y_6_9_7_19 <= 0
 c449: t_6_12 - t_7_21 + 43200 y_6_11_7_21 <= 43200
 c450: t_7_22 - t_6_11 - 43200 y_6_11_7_21 <= 0
 c451: t_6_14 - t_7_23 + 43200 y_6_13_7_23 <= 43200
 c452: t_7_24 - t_6_13 - 43200 y_6_13_7_23 <= 0
 c453: t_6_16 - t_7_25 + 43200 y_6_15_7_25 <= 43200
 c454: t_7_26 - t_6_15 - 43200 y_6_15_7_25 <= 0
 c455: t_0_11 - 43200 thr_0_11_0 <= 1370
 c456: t_0_11 - 43200 thr_0_11_180 <= 1550
 c457: t_0_11 - 43200 thr_0_11_360 <= 1730
 c458: t_1_7 - 43200 thr_1_7_0 <= 780
 c459: t_1_7 - 43200 thr_1_7_180 <= 960
 c460: t_1_7 - 43200 thr_1_7_360 <= 1140
 c461: t_2_15 - 43200 thr_2_15_0 <= 1860
 c462: t_2_15 - 43200 thr_2_15_180 <= 2040
 c463: t_2_15 - 43200 thr_2_15_360 <= 2220
 c464: t_3_13 - 43200 thr_3_13_0 <= 900
 c465: t_3_13 - 43200 thr_3_13_180 <= 1080
 c466: t_3_13 - 43200 thr_3_13_360 <= 1260
 c467: t_4_45 - 43200 thr_4_45_0 <= 3314
 c468: t_4_45 - 43200 thr_4_45_180 <= 3494
 c469: t_4_45 - 43200 thr_4_45_360 <= 3674
 c470: t_5_41 - 43200 thr_5_41_0 <= 5690
 c471: t_5_41 - 43200 thr_5_41_180 <= 5870
 c472: t_5_41 - 43200 thr_5_41_360 <= 6050
 c473: t_6_15 - 43200 thr_6_15_0 <= 1740
 c474: t_6_15 - 43200 thr_6_15_180 <= 1920
 c475: t_6_15 - 43200 thr_6_15_360 <= 2100
 c476: t_7_47 - 43200 thr_7_47_0 <= 5520
 c477: t_7_47 - 43200 thr_7_47_180 <= 5700
 c478: t_7_47 - 43200 thr_7_47_360 <= 5880

Bounds
       t_0_0 <= 43200
       t_0_1 <= 43200
       t_0_2 <= 43200
 10 <= t_0_3 <= 43200
 940 <= t_0_4 <= 43200
 970 <= t_0_5 <= 43200
 1260 <= t_0_6 <= 43200
 1270 <= t_0_7 <= 43200
 1540 <= t_0_8 <= 43200
 1570 <= t_0_9 <= 43200
 1920 <= t_0_10 <= 43200
 1920 <= t_0_11 <= 43200
 2170 <= t_0_12 <= 43200
       t_1_0 <= 43200
 20 <= t_1_1 <= 43200
 240 <= t_1_2 <= 43200
 260 <= t_1_3 <= 43200
 650 <= t_1_4 <= 43200
 680 <= t_1_5 <= 43200
 800 <= t_1_6 <= 43200
 800 <= t_1_7 <= 43200
 920 <= t_1_8 <= 43200
       t_2_0 <= 43200
       t_2_1 <= 43200
       t_2_2 <= 43200
 30 <= t_2_3 <= 43200
 330 <= t_2_4 <= 43200
 510 <= t_2_5 <= 43200
 780 <= t_2_6 <= 43200
 810 <= t_2_7 <= 43200
 1080 <= t_2_8 <= 43200
 1110 <= t_2_9 <= 43200
 1330 <= t_2_10 <= 43200
 1350 <= t_2_11 <= 43200
 1740 <= t_2_12 <= 43200
 1770 <= t_2_13 <= 43200
 1890 <= t_2_14 <= 43200
 1890 <= t_2_15 <= 43200
 2010 <= t_2_16 <= 43200
       t_3_0 <= 43200
       t_3_1 <= 43200
 178 <= t_3_2 <= 43200
 298 <= t_3_3 <= 43200
 388 <= t_3_4 <= 43200
 418 <= t_3_5 <= 43200
 568 <= t_3_6 <= 43200
 598 <= t_3_7 <= 43200
 698 <= t_3_8 <= 43200
 698 <= t_3_9 <= 43200
 748 <= t_3_10 <= 43200
 778 <= t_3_11 <= 43200
 958 <= t_3_12 <= 43200
 958 <= t_3_13 <= 43200
 1138 <= t_3_14 <= 43200
       t_4_0 <= 43200
       t_4_1 <= 43200
       t_4_2 <= 43200
 30 <= t_4_3 <= 43200
 380 <= t_4_4 <= 43200
 390 <= t_4_5 <= 43200
 660 <= t_4_6 <= 43200
 690 <= t_4_7 <= 43200
 960 <= t_4_8 <= 43200
 990 <= t_4_9 <= 43200
 1230 <= t_4_10 <= 43200
 1230 <= t_4_11 <= 43200
 1320 <= t_4_12 <= 43200
 1350 <= t_4_13 <= 43200
 1470 <= t_4_14 <= 43200
 1470 <= t_4_15 <= 43200
 1650 <= t_4_16 <= 43200
 1770 <= t_4_17 <= 43200
 1950 <= t_4_18 <= 43200
 1950 <= t_4_19 <= 43200
 2190 <= t_4_20 <= 43200
 2190 <= t_4_21 <= 43200
 2261 <= t_4_22 <= 43200
 2261 <= t_4_23 <= 43200
 2370 <= t_4_24 <= 43200
 2370 <= t_4_25 <= 43200
 2580 <= t_4_26 <= 43200
 2610 <= t_4_27 <= 43200
 2910 <= t_4_28 <= 43200
 2910 <= t_4_29 <= 43200
 2998 <= t_4_30 <= 43200
 2998 <= t_4_31 <= 43200
 3090 <= t_4_32 <= 43200
 3090 <= t_4_33 <= 43200
 3390 <= t_4_34 <= 43200
 3450 <= t_4_35 <= 43200
 3540 <= t_4_36 <= 43200
 3570 <= t_4_37 <= 43200
 3720 <= t_4_38 <= 43200
 3750 <= t_4_39 <= 43200
 3849 <= t_4_40 <= 43200
 3849 <= t_4_41 <= 43200
 3899 <= t_4_42 <= 43200
 3899 <= t_4_43 <= 43200
 4064 <= t_4_44 <= 43200
 4064 <= t_4_45 <= 43200
 4230 <= t_4_46 <= 43200
       t_5_0 <= 43200
       t_5_1 <= 43200
 240 <= t_5_2 <= 43200
 240 <= t_5_3 <= 43200
 420 <= t_5_4 <= 43200
 420 <= t_5_5 <= 43200
 522 <= t_5_6 <= 43200
 522 <= t_5_7 <= 43200
 600 <= t_5_8 <= 43200
 600 <= t_5_9 <= 43200
 840 <= t_5_10 <= 43200
 840 <= t_5_11 <= 43200
 1020 <= t_5_12 <= 43200
 1020 <= t_5_13 <= 43200
 1200 <= t_5_14 <= 43200
 1200 <= t_5_15 <= 43200
 1230 <= t_5_16 <= 43200
 1260 <= t_5_17 <= 43200
 1440 <= t_5_18 <= 43200
 1440 <= t_5_19 <= 43200
 1650 <= t_5_20 <= 43200
 1680 <= t_5_21 <= 43200
 1950 <= t_5_22 <= 43200
 1980 <= t_5_23 <= 43200
 2210 <= t_5_24 <= 43200
 2220 <= t_5_25 <= 43200
 2610 <= t_5_26 <= 43200
 2640 <= t_5_27 <= 43200
 2760 <= t_5_28 <= 43200
 2760 <= t_5_29 <= 43200
 2880 <= t_5_30 <= 43200
 3000 <= t_5_31 <= 43200
 3470 <= t_5_32 <= 43200
 3480 <= t_5_33 <= 43200
 4440 <= t_5_34 <= 43200
 4680 <= t_5_35 <= 43200
 4970 <= t_5_36 <= 43200
 4980 <= t_5_37 <= 43200
 5310 <= t_5_38 <= 43200
 5340 <= t_5_39 <= 43200
 5690 <= t_5_40 <= 43200
 5690 <= t_5_41 <= 43200
 5940 <= t_5_42 <= 43200
 37 <= t_6_0 <= 43200
 104 <= t_6_1 <= 43200
 314 <= t_6_2 <= 43200
 344 <= t_6_3 <= 43200
 644 <= t_6_4 <= 43200
 644 <= t_6_5 <= 43200
 674 <= t_6_6 <= 43200
 704 <= t_6_7 <= 43200
 854 <= t_6_8 <= 43200
 884 <= t_6_9 <= 43200
 1214 <= t_6_10 <= 43200
 1244 <= t_6_11 <= 43200
 1484 <= t_6_12 <= 43200
 1724 <= t_6_13 <= 43200
 1824 <= t_6_14 <= 43200
 1844 <= t_6_15 <= 43200
 2024 <= t_6_16 <= 43200
 360 <= t_7_0 <= 43200
 360 <= t_7_1 <= 43200
 495 <= t_7_2 <= 43200
 495 <= t_7_3 <= 43200
 630 <= t_7_4 <= 43200
 660 <= t_7_5 <= 43200
 740 <= t_7_6 <= 43200
 740 <= t_7_7 <= 43200
 900 <= t_7_8 <= 43200
 1080 <= t_7_9 <= 43200
 1170 <= t_7_10 <= 43200
 1200 <= t_7_11 <= 43200
 1350 <= t_7_12 <= 43200
 1380 <= t_7_13 <= 43200
 1680 <= t_7_14 <= 43200
 1680 <= t_7_15 <= 43200
 1710 <= t_7_16 <= 43200
 1740 <= t_7_17 <= 43200
 1980 <= t_7_18 <= 43200
 2160 <= t_7_19 <= 43200
 2490 <= t_7_20 <= 43200
 2520 <= t_7_21 <= 43200
 2730 <= t_7_22 <= 43200
 2760 <= t_7_23 <= 43200
 2860 <= t_7_24 <= 43200
 2880 <= t_7_25 <= 43200
 3030 <= t_7_26 <= 43200
 3060 <= t_7_27 <= 43200
 3300 <= t_7_28 <= 43200
 3300 <= t_7_29 <= 43200
 3480 <= t_7_30 <= 43200
 3480 <= t_7_31 <= 43200
 3660 <= t_7_32 <= 43200
 3660 <= t_7_33 <= 43200
 3690 <= t_7_34 <= 43200
 3720 <= t_7_35 <= 43200
 3960 <= t_7_36 <= 43200
 3960 <= t_7_37 <= 43200
 4200 <= t_7_38 <= 43200
 4380 <= t_7_39 <= 43200
 4710 <= t_7_40 <= 43200
 4740 <= t_7_41 <= 43200
 4960 <= t_7_42 <= 43200
 4980 <= t_7_43 <= 43200
 5370 <= t_7_44 <= 43200
 5400 <= t_7_45 <= 43200
 5520 <= t_7_46 <= 43200
 5520 <= t_7_47 <= 43200
 5640 <= t_7_48 <= 43200
 0 <= y_0_1_5_31 <= 1
 0 <= y_0_3_5_33 <= 1
 0 <= y_0_5_5_35 <= 1
 0 <= y_0_7_5_37 <= 1
 0 <= y_0_9_5_39 <= 1
 0 <= y_0_11_5_41 <= 1
 0 <= y_1_1_2_9 <= 1
 0 <= y_1_3_2_11 <= 1
 0 <= y_1_5_2_13 <= 1
 0 <= y_1_7_2_15 <= 1
 0 <= y_1_1_4_5 <= 1
 0 <= y_1_3_4_3 <= 1
 0 <= y_1_5_4_1 <= 1
 0 <= y_1_1_5_23 <= 1
 0 <= y_1_3_5_25 <= 1
 0 <= y_1_5_5_27 <= 1
 0 <= y_1_7_5_29 <= 1
 0 <= y_1_1_7_41 <= 1
 0 <= y_1_3_7_43 <= 1
 0 <= y_1_5_7_45 <= 1
 0 <= y_1_7_7_47 <= 1
 0 <= y_2_1_4_13 <= 1
 0 <= y_2_3_4_11 <= 1
 0 <= y_2_5_4_9 <= 1
 0 <= y_2_7_4_7 <= 1
 0 <= y_2_9_4_5 <= 1
 0 <= y_2_11_4_3 <= 1
 0 <= y_2_13_4_1 <= 1
 0 <= y_2_1_5_15 <= 1
 0 <= y_2_3_5_17 <= 1
 0 <= y_2_5_5_19 <= 1
 0 <= y_2_7_5_21 <= 1
 0 <= y_2_9_5_23 <= 1
 0 <= y_2_11_5_25 <= 1
 0 <= y_2_13_5_27 <= 1
 0 <= y_2_15_5_29 <= 1
 0 <= y_2_1_7_33 <= 1
 0 <= y_2_3_7_35 <= 1
 0 <= y_2_5_7_37 <= 1
 0 <= y_2_7_7_39 <= 1
 0 <= y_2_9_7_41 <= 1
 0 <= y_2_11_7_43 <= 1
 0 <= y_2_13_7_45 <= 1
 0 <= y_2_15_7_47 <= 1
 0 <= y_3_1_4_33 <= 1
 0 <= y_3_3_4_35 <= 1
 0 <= y_3_5_4_37 <= 1
 0 <= y_3_7_4_39 <= 1
 0 <= y_3_9_4_41 <= 1
 0 <= y_3_11_4_43 <= 1
 0 <= y_3_13_4_45 <= 1
 0 <= y_3_1_6_3 <= 1
 0 <= y_3_3_6_1 <= 1
 0 <= y_3_1_7_13 <= 1
 0 <= y_3_3_7_11 <= 1
 0 <= y_3_5_7_9 <= 1
 0 <= y_3_13_7_1 <= 1
 0 <= y_4_1_5_27 <= 1
 0 <= y_4_3_5_25 <= 1
 0 <= y_4_5_5_23 <= 1
 0 <= y_4_7_5_21 <= 1
 0 <= y_4_9_5_19 <= 1
 0 <= y_4_11_5_17 <= 1
 0 <= y_4_13_5_15 <= 1
 0 <= y_4_15_5_13 <= 1
 0 <= y_4_17_5_11 <= 1
 0 <= y_4_19_5_9 <= 1
 0 <= y_4_21_5_7 <= 1
 0 <= y_4_23_5_5 <= 1
 0 <= y_4_25_5_3 <= 1
 0 <= y_4_27_5_1 <= 1
 0 <= y_4_21_6_15 <= 1
 0 <= y_4_23_6_13 <= 1
 0 <= y_4_25_6_11 <= 1
 0 <= y_4_27_6_9 <= 1
 0 <= y_4_29_6_7 <= 1
 0 <= y_4_31_6_5 <= 1
 0 <= y_4_33_6_3 <= 1
 0 <= y_4_35_6_1 <= 1
 0 <= y_4_1_7_45 <= 1
 0 <= y_4_3_7_43 <= 1
 0 <= y_4_5_7_41 <= 1
 0 <= y_4_7_7_39 <= 1
 0 <= y_4_9_7_37 <= 1
 0 <= y_4_11_7_35 <= 1
 0 <= y_4_13_7_33 <= 1
 0 <= y_4_15_7_31 <= 1
 0 <= y_4_17_7_29 <= 1
 0 <= y_4_19_7_27 <= 1
 0 <= y_4_21_7_25 <= 1
 0 <= y_4_23_7_23 <= 1
 0 <= y_4_25_7_21 <= 1
 0 <= y_4_27_7_19 <= 1
 0 <= y_4_29_7_17 <= 1
 0 <= y_4_31_7_15 <= 1
 0 <= y_4_33_7_13 <= 1
 0 <= y_4_35_7_11 <= 1
 0 <= y_4_37_7_9 <= 1
 0 <= y_4_45_7_1 <= 1
 0 <= y_5_1_6_9 <= 1
 0 <= y_5_3_6_11 <= 1
 0 <= y_5_5_6_13 <= 1
 0 <= y_5_7_6_15 <= 1
 0 <= y_5_1_7_19 <= 1
 0 <= y_5_3_7_21 <= 1
 0 <= y_5_5_7_23 <= 1
 0 <= y_5_7_7_25 <= 1
 0 <= y_5_9_7_27 <= 1
 0 <= y_5_11_7_29 <= 1
 0 <= y_5_13_7_31 <= 1
 0 <= y_5_15_7_33 <= 1
 0 <= y_5_17_7_35 <= 1
 0 <= y_5_19_7_37 <= 1
 0 <= y_5_21_7_39 <= 1
 0 <= y_5_23_7_41 <= 1
 0 <= y_5_25_7_43 <= 1
 0 <= y_5_27_7_45 <= 1
 0 <= y_5_29_7_47 <= 1
 0 <= y_6_1_7_11 <= 1
 0 <= y_6_3_7_13 <= 1
 0 <= y_6_5_7_15 <= 1
 0 <= y_6_7_7_17 <= 1
 0 <= y_6_9_7_19 <= 1
 0 <= y_6_11_7_21 <= 1
 0 <= y_6_13_7_23 <= 1
 0 <= y_6_15_7_25 <= 1
 0 <= thr_0_11_0 <= 1
 0 <= thr_0_11_180 <= 1
 0 <= thr_0_11_360 <= 1
 0 <= thr_1_7_0 <= 1
 0 <= thr_1_7_180 <= 1
 0 <= thr_1_7_360 <= 1
 0 <= thr_2_15_0 <= 1
 0 <= thr_2_15_180 <= 1
 0 <= thr_2_15_360 <= 1
 0 <= thr_3_13_0 <= 1
 0 <= thr_3_13_180 <= 1
 0 <= thr_3_13_360 <= 1
 0 <= thr_4_45_0 <= 1
 0 <= thr_4_45_180 <= 1
 0 <= thr_4_45_360 <= 1
 0 <= thr_5_41_0 <= 1
 0 <= thr_5_41_180 <= 1
 0 <= thr_5_41_360 <= 1
 0 <= thr_6_15_0 <= 1
 0 <= thr_6_15_180 <= 1
 0 <= thr_6_15_360 <= 1
 0 <= thr_7_47_0 <= 1
 0 <= thr_7_47_180 <= 1
 0 <= thr_7_47_360 <= 1

Binaries
 y_0_1_5_31 y_0_3_5_33 y_0_5_5_35 y_0_7_5_37 y_0_9_5_39 y_0_11_5_41 y_1_1_2_9
 y_1_3_2_11 y_1_5_2_13 y_1_7_2_15 y_1_1_4_5 y_1_3_4_3 y_1_5_4_1 y_1_1_5_23
 y_1_3_5_25 y_1_5_5_27 y_1_7_5_29 y_1_1_7_41 y_1_3_7_43 y_1_5_7_45 y_1_7_7_47
 y_2_1_4_13 y_2_3_4_11 y_2_5_4_9 y_2_7_4_7 y_2_9_4_5 y_2_11_4_3 y_2_13_4_1
 y_2_1_5_15 y_2_3_5_17 y_2_5_5_19 y_2_7_5_21 y_2_9_5_23 y_2_11_5_25 y_2_13_5_27
 y_2_15_5_29 y_2_1_7_33 y_2_3_7_35 y_2_5_7_37 y_2_7_7_39 y_2_9_7_41 y_2_11_7_43
 y_2_13_7_45 y_2_15_7_47 y_3_1_4_33 y_3_3_4_35 y_3_5_4_37 y_3_7_4_39 y_3_9_4_41
 y_3_11_4_43 y_3_13_4_45 y_3_1_6_3 y_3_3_6_1 y_3_1_7_13 y_3_3_7_11 y_3_5_7_9
 y_3_13_7_1 y_4_1_5_27 y_4_3_5_25 y_4_5_5_23 y_4_7_5_21 y_4_9_5_19 y_4_11_5_17
 y_4_13_5_15 y_4_15_5_13 y_4_17_5_11 y_4_19_5_9 y_4_21_5_7 y_4_23_5_5 y_4_25_5_3
 y_4_27_5_1 y_4_21_6_15 y_4_23_6_13 y_4_25_6_11 y_4_27_6_9 y_4_29_6_7 y_4_31_6_5
 y_4_33_6_3 y_4_35_6_1 y_4_1_7_45 y_4_3_7_43 y_4_5_7_41 y_4_7_7_39 y_4_9_7_37
 y_4_11_7_35 y_4_13_7_33 y_4_15_7_31 y_4_17_7_29 y_4_19_7_27 y_4_21_7_25
 y_4_23_7_23 y_4_25_7_21 y_4_27_7_19 y_4_29_7_17 y_4_31_7_15 y_4_33_7_13
 y_4_35_7_11 y_4_37_7_9 y_4_45_7_1 y_5_1_6_9 y_5_3_6_11 y_5_5_6_13 y_5_7_6_15
 y_5_1_7_19 y_5_3_7_21 y_5_5_7_23 y_5_7_7_25 y_5_9_7_27 y_5_11_7_29 y_5_13_7_31
 y_5_15_7_33 y_5_17_7_35 y_5_19_7_37 y_5_21_7_39 y_5_23_7_41 y_5_25_7_43
 y_5_27_7_45 y_5_29_7_47 y_6_1_7_11 y_6_3_7_13 y_6_5_7_15 y_6_7_7_17 y_6_9_7_19
 y_6_11_7_21 y_6_13_7_23 y_6_15_7_25 thr_0_11_0 thr_0_11_180 thr_0_11_360
 thr_1_7_0 thr_1_7_180 thr_1_7_360 thr_2_15_0 thr_2_15_180 thr_2_15_360
 thr_3_13_0 thr_3_13_180 thr_3_13_360 thr_4_45_0 thr_4_45_180 thr_4_45_360
 thr_5_41_0 thr_5_41_180 thr_5_41_360 thr_6_15_0 thr_6_15_180 thr_6_15_360
 thr_7_47_0 thr_7_47_180 thr_7_47_360
End
